HUN,8,6,179
2,8,0,25,1,13,5,17,3,30,4,2
0,21,2,13,1,25,5,27,3,1,4,5
1,29,2,23,0,18,3,10,5,30,4,13
2,2,1,30,0,28,4,15,5,17,3,20
0,27,1,11,2,6,4,25,5,11,3,12
2,23,1,25,0,18,3,10,4,13,5,10
0,2,1,10,2,30,5,27,3,20,4,9
1,28,2,16,0,20,4,25,5,18,3,26
